8395
37, 38, 40, 36, 39, 35, 34, 44, 46, 16, 29, 50, 20, 30, 23, 21, 42, 2, 7, 17, 18, 3, 31, 1, 22, 49, 32, 45, 19, 41, 8, 10, 9, 43, 33, 12, 28, 27, 26, 47, 14, 13, 52, 11, 51, 4, 25, 6, 15, 5, 24, 48
